InboundTrucks  = 30;
OutboundTrucks = 30;
InboundDoors   = 8;
OutboundDoors  = 8;
ReleaseTime    = [30,75,69,16,47,117,77,60,80,74,8,77,1,116,107,60,33,70,29,24,91,60,69,107,70,60,50,81,110,19];
UnloadTime     = [25,27,21,17,33,24,24,27,24,22,10,32,20,12,25,26,24,26,12,19,20,28,26,32,31,32,11,30,17,31];
LoadTime       = [6,15,12,5,9,17,15,6,12,17,6,13,17,9,13,17,18,11,11,13,19,11,9,9,13,10,5,17,11,15];
TransferTime   = [| 5,0,0,1,0,0,2,0,0,4,0,0,3,0,0,1,0,0,5,8,0,1,12,0,4,0,0,1,6,11 | 0,5,0,0,0,0,0,2,0,0,3,0,0,2,0,0,0,0,0,0,0,0,5,0,0,2,7,0,2,0 | 0,0,0,7,0,2,0,0,1,0,0,1,0,0,2,0,0,2,0,0,5,0,0,3,0,0,1,0,0,0 | 5,0,0,4,0,0,2,0,9,5,0,0,0,0,5,5,0,0,0,0,0,2,0,0,5,0,0,3,0,0 | 0,5,0,0,4,0,0,5,0,0,2,9,0,1,0,8,4,0,0,2,0,0,0,0,0,2,0,0,5,0 | 0,0,4,0,0,2,6,0,0,0,0,3,7,0,1,0,0,4,0,0,0,0,0,4,0,0,5,0,0,2 | 4,8,0,3,0,0,1,0,0,0,0,0,2,5,0,1,0,0,5,0,12,3,0,0,4,0,0,5,0,7 | 0,5,0,0,0,0,0,5,0,0,3,0,0,0,0,0,4,11,11,2,0,0,1,0,0,3,0,0,1,0 | 0,0,3,0,0,0,0,0,4,0,0,0,0,0,2,0,0,0,0,0,3,0,0,2,0,0,3,0,0,4 | 5,0,0,0,0,0,0,0,0,5,0,0,3,0,0,1,6,0,3,0,5,5,0,0,4,0,0,1,0,0 | 0,1,0,0,0,0,0,4,0,0,5,0,0,5,0,0,0,0,0,1,7,0,0,0,0,4,0,0,1,0 | 0,10,3,0,0,3,0,0,2,0,0,2,0,0,1,0,0,0,0,0,2,0,0,4,12,0,0,6,0,5 | 0,0,0,2,0,0,3,0,0,2,0,8,4,0,0,4,6,0,2,0,0,0,0,0,4,0,0,5,0,0 | 0,2,0,0,5,0,0,1,0,0,1,0,9,0,0,0,0,0,0,1,0,0,1,0,0,5,0,0,0,0 | 0,0,5,7,0,2,0,0,0,0,0,0,0,0,0,7,0,4,0,0,2,0,0,5,0,0,3,0,0,2 | 1,7,0,0,5,0,5,0,0,5,0,0,1,0,0,2,0,0,4,0,0,2,6,0,1,0,0,4,0,0 | 0,1,0,0,5,0,0,4,0,0,5,0,0,5,0,0,5,0,0,0,0,0,3,0,0,2,0,0,3,0 | 9,0,0,0,0,5,0,0,0,0,0,3,0,0,3,0,0,5,0,0,3,0,0,3,0,0,3,0,0,2 | 4,0,0,3,0,0,1,0,0,3,0,0,4,0,0,5,0,0,0,0,0,4,0,0,4,0,0,1,0,0 | 0,5,0,0,3,12,0,2,0,0,5,0,0,2,0,0,5,0,0,0,0,0,0,0,0,1,0,0,4,9 | 0,0,4,0,5,1,0,0,4,0,0,4,0,0,2,0,0,3,11,0,1,0,0,3,0,0,3,0,0,1 | 2,0,0,3,0,0,3,0,0,0,0,0,4,0,0,1,0,0,2,0,0,2,0,0,3,0,0,3,8,0 | 7,5,0,5,1,6,0,1,0,0,5,0,0,5,0,0,5,0,0,5,0,11,4,10,0,2,0,0,0,0 | 0,0,4,0,0,1,0,7,4,0,0,5,0,0,2,0,0,4,0,0,2,0,0,2,0,0,3,8,0,2 | 3,0,0,5,0,0,0,0,6,1,0,0,0,8,0,0,0,0,5,7,0,4,0,11,0,0,0,3,0,0 | 0,3,0,0,5,0,0,0,0,0,1,10,10,2,0,0,5,0,0,0,0,0,3,0,0,4,0,0,1,0 | 0,0,5,0,0,0,0,0,0,0,0,4,0,0,2,0,10,3,0,0,5,5,0,2,0,0,3,0,0,4 | 5,0,0,0,11,0,5,0,0,4,0,0,3,0,9,1,11,0,4,0,0,0,0,0,3,0,0,2,0,0 | 0,4,0,0,3,0,0,3,0,0,5,0,5,5,0,0,4,0,0,5,0,0,1,0,0,1,0,0,5,0 | 0,0,2,0,0,3,0,0,4,0,0,4,5,0,5,0,0,0,0,0,4,0,0,5,0,8,2,0,0,0 |];
